NAME : 10_3_3_1_(21).dat
COMMENT : Henke, Speranza, Wäscher, 2015
TYPE : MCVRP
DIMENSION : 11
EDGE_WEIGHT_TYPE : DISTANCE_MATRIX
CAPACITY : 1000
VEHICLES : 3
PRODUCT TYPES : 3
COMPARTMENTS : 3
NODE_COORD_SECTION
1 50 50
2 36 26.64
3 38.6 17.36
4 14.81 63.01
5 16.55 25.69
6 32.72 58.01
7 3.94 77.2
8 1.54 17.47
9 98.33 85.53
10 23.7 72.38
11 12.96 83.68
DEMAND_SECTION
1 0 0 0
2 0 140 0
3 281 0 0
4 160 0 0
5 18 0 0
6 199 0 0
7 118 0 0
8 0 212 0
9 79 0 0
10 0 0 342
11 0 161 0
DEPOT_SECTION
1
EOF